0 5027.09
1 4963.77
2 4963.77
3 4963.77
4 4963.77
5 4963.77
6 4963.77
7 4963.77
8 4963.77
9 4963.77
10 4963.77
11 4963.77
12 4963.77
13 4914.36
14 4902.91
15 4902.91
16 4902.91
17 4902.91
18 4902.91
19 4902.91
20 4893.17
21 4893.17
22 4893.17
23 4893.17
24 4892.31
25 4892.31
26 4892.31
27 4892.31
28 4892.31
29 4892.31
30 4892.31
31 4892.31
32 4892.31
33 4892.31
34 4892.31
35 4892.31
36 4866.05
37 4866.05
38 4866.05
39 4866.05
40 4866.05
41 4866.05
42 4854.79
43 4854.79
44 4854.79
45 4854.79
46 4854.79
47 4854.79
48 4854.79
49 4854.79
50 4854.79
51 4854.79
52 4854.79
53 4854.79
54 4854.79
55 4854.79
56 4854.79
57 4854.79
58 4848.29
59 4848.29
60 4842.01
61 4842.01
62 4842.01
63 4842.01
64 4842.01
65 4842.01
66 4842.01
67 4842.01
68 4842.01
69 4842.01
70 4842.01
71 4842.01
72 4842.01
73 4842.01
74 4842.01
75 4841.43
76 4841.43
77 4841.43
78 4841.43
79 4841.43
80 4841.43
81 4841.43
82 4841.43
83 4841.43
84 4841.43
85 4841.43
86 4841.43
87 4841.43
88 4841.43
89 4841.43
90 4841.43
91 4841.43
92 4841.43
93 4841.43
94 4841.43
95 4841.43
96 4841.43
97 4841.43
98 4841.43
99 4841.43
100 4841.43
101 4841.43
102 4841.43
103 4841.43
104 4841.43
105 4841.43
106 4841.43
107 4841.43
108 4841.43
109 4841.43
110 4841.43
111 4841.43
112 4841.43
113 4841.43
114 4841.43
115 4841.43
116 4841.43
117 4841.43
118 4841.43
119 4841.43
120 4841.43
121 4841.43
122 4841.43
123 4841.43
124 4841.43
125 4841.43
126 4841.43
127 4841.43
128 4841.43
129 4841.43
130 4841.43
131 4841.43
132 4841.43
133 4841.43
134 4841.43
135 4841.43
136 4841.43
137 4841.43
138 4841.43
139 4841.43
140 4841.43
141 4841.43
142 4841.43
143 4833.54
144 4833.54
145 4833.54
146 4833.54
147 4833.54
148 4833.54
149 4833.54
150 4833.54
151 4833.54
152 4833.54
153 4833.54
154 4833.54
155 4833.54
156 4833.54
157 4833.54
158 4833.54
159 4833.54
160 4833.54
161 4833.54
162 4833.54
163 4833.54
164 4833.54
165 4833.54
166 4833.54
167 4833.54
168 4833.54
169 4833.54
170 4833.54
171 4833.54
172 4833.54
173 4833.54
174 4833.54
175 4833.54
176 4833.54
177 4833.54
178 4833.54
179 4833.54
180 4833.54
181 4833.54
182 4833.54
183 4833.54
184 4833.54
185 4833.54
186 4833.54
187 4833.54
188 4833.54
189 4833.54
190 4833.54
191 4833.54
192 4833.54
193 4833.54
194 4833.54
195 4801.30
196 4801.30
197 4801.30
198 4801.30
199 4801.30
200 4801.30
201 4801.30
202 4801.30
203 4801.30
204 4796.86
205 4796.86
206 4796.86
207 4796.86
208 4796.86
209 4796.86
210 4796.86
211 4796.86
212 4796.86
213 4796.86
214 4796.86
215 4796.86
216 4796.86
217 4796.86
218 4796.86
219 4796.86
220 4796.86
221 4796.86
222 4796.86
223 4796.86
224 4796.86
225 4796.86
226 4796.86
227 4796.86
228 4796.86
229 4796.86
230 4796.86
231 4796.86
232 4796.86
233 4796.86
234 4796.86
235 4796.86
236 4796.86
237 4796.86
238 4796.86
239 4796.86
240 4796.86
241 4796.86
242 4796.86
243 4796.86
244 4796.86
245 4796.86
246 4796.86
247 4796.86
248 4796.86
249 4796.86
250 4796.86
251 4796.86
252 4796.86
253 4796.86
254 4796.86
255 4796.86
256 4793.14
257 4793.14
258 4793.14
259 4793.14
260 4793.14
261 4793.14
262 4793.14
263 4793.14
264 4793.14
265 4793.14
266 4793.14
267 4793.14
268 4793.14
269 4793.14
270 4793.14
271 4793.14
272 4793.14
273 4793.14
274 4793.14
275 4793.14
276 4793.14
277 4793.14
278 4793.14
279 4793.14
280 4793.14
281 4793.14
282 4793.14
283 4793.14
284 4793.14
285 4793.14
286 4793.14
287 4793.14
288 4793.14
289 4793.14
290 4793.14
291 4793.14
292 4793.14
293 4793.14
294 4793.14
295 4793.14
296 4793.14
297 4793.14
298 4793.14
299 4793.14
300 4793.14
301 4793.14
302 4793.14
303 4793.14
304 4793.14
305 4793.14
306 4793.14
307 4793.14
308 4793.14
309 4793.14
310 4782.01
311 4782.01
312 4782.01
313 4782.01
314 4782.01
315 4782.01
316 4782.01
317 4782.01
318 4782.01
319 4782.01
320 4782.01
321 4782.01
322 4782.01
323 4782.01
324 4782.01
325 4782.01
326 4782.01
327 4782.01
328 4782.01
329 4782.01
330 4782.01
331 4782.01
332 4782.01
333 4782.01
334 4777.46
335 4773.90
336 4773.90
337 4773.90
338 4773.90
339 4773.90
340 4773.90
341 4773.90
342 4773.90
343 4773.90
344 4773.90
345 4772.74
346 4772.74
347 4772.74
348 4772.74
349 4772.74
350 4772.74
351 4772.74
352 4772.74
353 4772.74
354 4772.74
355 4772.74
356 4772.74
357 4772.74
358 4772.74
359 4766.70
360 4766.70
361 4766.70
362 4766.70
363 4766.70
364 4766.70
365 4766.70
366 4766.70
367 4766.70
368 4766.70
369 4766.70
370 4766.70
371 4766.70
372 4766.70
373 4766.70
374 4766.70
375 4766.70
376 4766.70
377 4766.70
378 4766.70
379 4766.70
380 4766.70
381 4766.70
382 4766.70
383 4766.70
384 4766.70
385 4766.70
386 4766.70
387 4766.70
388 4766.70
389 4766.70
390 4766.70
391 4766.70
392 4766.70
393 4766.70
394 4766.70
395 4766.70
396 4766.70
397 4766.70
398 4766.70
399 4766.70
400 4766.70
401 4766.70
402 4766.70
403 4766.70
404 4766.70
405 4766.70
406 4766.70
407 4766.70
408 4766.70
409 4766.70
410 4766.70
411 4766.70
412 4766.70
413 4766.70
414 4766.70
415 4766.70
416 4766.70
417 4766.70
418 4766.70
419 4766.70
420 4766.70
421 4766.70
422 4766.70
423 4766.70
424 4766.70
425 4766.70
426 4766.70
427 4766.70
428 4766.70
429 4766.70
430 4766.70
431 4766.70
432 4766.70
433 4766.70
434 4766.70
435 4766.70
436 4766.70
437 4766.70
438 4766.70
439 4766.70
440 4766.70
441 4766.70
442 4766.70
443 4766.70
444 4766.70
445 4766.70
446 4766.70
447 4766.70
448 4766.70
449 4766.70
450 4766.70
451 4764.75
452 4764.75
453 4764.75
454 4764.75
455 4764.75
456 4764.75
457 4764.75
458 4764.75
459 4764.75
460 4764.75
461 4764.75
462 4764.75
463 4764.75
464 4764.75
465 4764.75
466 4764.75
467 4764.75
468 4764.75
469 4764.75
470 4764.75
471 4764.75
472 4764.75
473 4764.75
474 4764.75
475 4764.75
476 4764.75
477 4764.75
478 4764.75
479 4764.75
480 4764.75
481 4764.75
482 4764.75
483 4764.75
484 4764.75
485 4763.09
486 4763.09
487 4763.09
488 4763.09
489 4763.09
490 4763.09
491 4763.09
492 4763.09
493 4763.09
494 4763.09
495 4763.09
496 4763.09
497 4763.09
498 4763.09
499 4763.09
2 6 8 4 0 0 